certificates/rado_a6_c-8_N127.cnf
c Rad2 upper bound instance: x1 + 6*x2 - x3 = -8, interval [1,127]
p cnf 127 2242
1 15 0
-1 -15 0
1 2 21 0
-1 -2 -21 0
1 3 27 0
-1 -3 -27 0
1 4 33 0
-1 -4 -33 0
1 5 39 0
-1 -5 -39 0
1 6 45 0
-1 -6 -45 0
1 7 51 0
-1 -7 -51 0
1 8 57 0
-1 -8 -57 0
1 9 63 0
-1 -9 -63 0
1 10 69 0
-1 -10 -69 0
1 11 75 0
-1 -11 -75 0
1 12 81 0
-1 -12 -81 0
1 13 87 0
-1 -13 -87 0
1 14 93 0
-1 -14 -93 0
1 15 99 0
-1 -15 -99 0
1 16 105 0
-1 -16 -105 0
1 17 111 0
-1 -17 -111 0
1 18 117 0
-1 -18 -117 0
1 19 123 0
-1 -19 -123 0
1 2 16 0
-1 -2 -16 0
2 22 0
-2 -22 0
2 3 28 0
-2 -3 -28 0
2 4 34 0
-2 -4 -34 0
2 5 40 0
-2 -5 -40 0
2 6 46 0
-2 -6 -46 0
2 7 52 0
-2 -7 -52 0
2 8 58 0
-2 -8 -58 0
2 9 64 0
-2 -9 -64 0
2 10 70 0
-2 -10 -70 0
2 11 76 0
-2 -11 -76 0
2 12 82 0
-2 -12 -82 0
2 13 88 0
-2 -13 -88 0
2 14 94 0
-2 -14 -94 0
2 15 100 0
-2 -15 -100 0
2 16 106 0
-2 -16 -106 0
2 17 112 0
-2 -17 -112 0
2 18 118 0
-2 -18 -118 0
2 19 124 0
-2 -19 -124 0
1 3 17 0
-1 -3 -17 0
2 3 23 0
-2 -3 -23 0
3 29 0
-3 -29 0
3 4 35 0
-3 -4 -35 0
3 5 41 0
-3 -5 -41 0
3 6 47 0
-3 -6 -47 0
3 7 53 0
-3 -7 -53 0
3 8 59 0
-3 -8 -59 0
3 9 65 0
-3 -9 -65 0
3 10 71 0
-3 -10 -71 0
3 11 77 0
-3 -11 -77 0
3 12 83 0
-3 -12 -83 0
3 13 89 0
-3 -13 -89 0
3 14 95 0
-3 -14 -95 0
3 15 101 0
-3 -15 -101 0
3 16 107 0
-3 -16 -107 0
3 17 113 0
-3 -17 -113 0
3 18 119 0
-3 -18 -119 0
3 19 125 0
-3 -19 -125 0
1 4 18 0
-1 -4 -18 0
2 4 24 0
-2 -4 -24 0
3 4 30 0
-3 -4 -30 0
4 36 0
-4 -36 0
4 5 42 0
-4 -5 -42 0
4 6 48 0
-4 -6 -48 0
4 7 54 0
-4 -7 -54 0
4 8 60 0
-4 -8 -60 0
4 9 66 0
-4 -9 -66 0
4 10 72 0
-4 -10 -72 0
4 11 78 0
-4 -11 -78 0
4 12 84 0
-4 -12 -84 0
4 13 90 0
-4 -13 -90 0
4 14 96 0
-4 -14 -96 0
4 15 102 0
-4 -15 -102 0
4 16 108 0
-4 -16 -108 0
4 17 114 0
-4 -17 -114 0
4 18 120 0
-4 -18 -120 0
4 19 126 0
-4 -19 -126 0
1 5 19 0
-1 -5 -19 0
2 5 25 0
-2 -5 -25 0
3 5 31 0
-3 -5 -31 0
4 5 37 0
-4 -5 -37 0
5 43 0
-5 -43 0
5 6 49 0
-5 -6 -49 0
5 7 55 0
-5 -7 -55 0
5 8 61 0
-5 -8 -61 0
5 9 67 0
-5 -9 -67 0
5 10 73 0
-5 -10 -73 0
5 11 79 0
-5 -11 -79 0
5 12 85 0
-5 -12 -85 0
5 13 91 0
-5 -13 -91 0
5 14 97 0
-5 -14 -97 0
5 15 103 0
-5 -15 -103 0
5 16 109 0
-5 -16 -109 0
5 17 115 0
-5 -17 -115 0
5 18 121 0
-5 -18 -121 0
5 19 127 0
-5 -19 -127 0
1 6 20 0
-1 -6 -20 0
2 6 26 0
-2 -6 -26 0
3 6 32 0
-3 -6 -32 0
4 6 38 0
-4 -6 -38 0
5 6 44 0
-5 -6 -44 0
6 50 0
-6 -50 0
6 7 56 0
-6 -7 -56 0
6 8 62 0
-6 -8 -62 0
6 9 68 0
-6 -9 -68 0
6 10 74 0
-6 -10 -74 0
6 11 80 0
-6 -11 -80 0
6 12 86 0
-6 -12 -86 0
6 13 92 0
-6 -13 -92 0
6 14 98 0
-6 -14 -98 0
6 15 104 0
-6 -15 -104 0
6 16 110 0
-6 -16 -110 0
6 17 116 0
-6 -17 -116 0
6 18 122 0
-6 -18 -122 0
1 7 21 0
-1 -7 -21 0
2 7 27 0
-2 -7 -27 0
3 7 33 0
-3 -7 -33 0
4 7 39 0
-4 -7 -39 0
5 7 45 0
-5 -7 -45 0
6 7 51 0
-6 -7 -51 0
7 57 0
-7 -57 0
7 8 63 0
-7 -8 -63 0
7 9 69 0
-7 -9 -69 0
7 10 75 0
-7 -10 -75 0
7 11 81 0
-7 -11 -81 0
7 12 87 0
-7 -12 -87 0
7 13 93 0
-7 -13 -93 0
7 14 99 0
-7 -14 -99 0
7 15 105 0
-7 -15 -105 0
7 16 111 0
-7 -16 -111 0
7 17 117 0
-7 -17 -117 0
7 18 123 0
-7 -18 -123 0
1 8 22 0
-1 -8 -22 0
2 8 28 0
-2 -8 -28 0
3 8 34 0
-3 -8 -34 0
4 8 40 0
-4 -8 -40 0
5 8 46 0
-5 -8 -46 0
6 8 52 0
-6 -8 -52 0
7 8 58 0
-7 -8 -58 0
8 64 0
-8 -64 0
8 9 70 0
-8 -9 -70 0
8 10 76 0
-8 -10 -76 0
8 11 82 0
-8 -11 -82 0
8 12 88 0
-8 -12 -88 0
8 13 94 0
-8 -13 -94 0
8 14 100 0
-8 -14 -100 0
8 15 106 0
-8 -15 -106 0
8 16 112 0
-8 -16 -112 0
8 17 118 0
-8 -17 -118 0
8 18 124 0
-8 -18 -124 0
1 9 23 0
-1 -9 -23 0
2 9 29 0
-2 -9 -29 0
3 9 35 0
-3 -9 -35 0
4 9 41 0
-4 -9 -41 0
5 9 47 0
-5 -9 -47 0
6 9 53 0
-6 -9 -53 0
7 9 59 0
-7 -9 -59 0
8 9 65 0
-8 -9 -65 0
9 71 0
-9 -71 0
9 10 77 0
-9 -10 -77 0
9 11 83 0
-9 -11 -83 0
9 12 89 0
-9 -12 -89 0
9 13 95 0
-9 -13 -95 0
9 14 101 0
-9 -14 -101 0
9 15 107 0
-9 -15 -107 0
9 16 113 0
-9 -16 -113 0
9 17 119 0
-9 -17 -119 0
9 18 125 0
-9 -18 -125 0
1 10 24 0
-1 -10 -24 0
2 10 30 0
-2 -10 -30 0
3 10 36 0
-3 -10 -36 0
4 10 42 0
-4 -10 -42 0
5 10 48 0
-5 -10 -48 0
6 10 54 0
-6 -10 -54 0
7 10 60 0
-7 -10 -60 0
8 10 66 0
-8 -10 -66 0
9 10 72 0
-9 -10 -72 0
10 78 0
-10 -78 0
10 11 84 0
-10 -11 -84 0
10 12 90 0
-10 -12 -90 0
10 13 96 0
-10 -13 -96 0
10 14 102 0
-10 -14 -102 0
10 15 108 0
-10 -15 -108 0
10 16 114 0
-10 -16 -114 0
10 17 120 0
-10 -17 -120 0
10 18 126 0
-10 -18 -126 0
1 11 25 0
-1 -11 -25 0
2 11 31 0
-2 -11 -31 0
3 11 37 0
-3 -11 -37 0
4 11 43 0
-4 -11 -43 0
5 11 49 0
-5 -11 -49 0
6 11 55 0
-6 -11 -55 0
7 11 61 0
-7 -11 -61 0
8 11 67 0
-8 -11 -67 0
9 11 73 0
-9 -11 -73 0
10 11 79 0
-10 -11 -79 0
11 85 0
-11 -85 0
11 12 91 0
-11 -12 -91 0
11 13 97 0
-11 -13 -97 0
11 14 103 0
-11 -14 -103 0
11 15 109 0
-11 -15 -109 0
11 16 115 0
-11 -16 -115 0
11 17 121 0
-11 -17 -121 0
11 18 127 0
-11 -18 -127 0
1 12 26 0
-1 -12 -26 0
2 12 32 0
-2 -12 -32 0
3 12 38 0
-3 -12 -38 0
4 12 44 0
-4 -12 -44 0
5 12 50 0
-5 -12 -50 0
6 12 56 0
-6 -12 -56 0
7 12 62 0
-7 -12 -62 0
8 12 68 0
-8 -12 -68 0
9 12 74 0
-9 -12 -74 0
10 12 80 0
-10 -12 -80 0
11 12 86 0
-11 -12 -86 0
12 92 0
-12 -92 0
12 13 98 0
-12 -13 -98 0
12 14 104 0
-12 -14 -104 0
12 15 110 0
-12 -15 -110 0
12 16 116 0
-12 -16 -116 0
12 17 122 0
-12 -17 -122 0
1 13 27 0
-1 -13 -27 0
2 13 33 0
-2 -13 -33 0
3 13 39 0
-3 -13 -39 0
4 13 45 0
-4 -13 -45 0
5 13 51 0
-5 -13 -51 0
6 13 57 0
-6 -13 -57 0
7 13 63 0
-7 -13 -63 0
8 13 69 0
-8 -13 -69 0
9 13 75 0
-9 -13 -75 0
10 13 81 0
-10 -13 -81 0
11 13 87 0
-11 -13 -87 0
12 13 93 0
-12 -13 -93 0
13 99 0
-13 -99 0
13 14 105 0
-13 -14 -105 0
13 15 111 0
-13 -15 -111 0
13 16 117 0
-13 -16 -117 0
13 17 123 0
-13 -17 -123 0
1 14 28 0
-1 -14 -28 0
2 14 34 0
-2 -14 -34 0
3 14 40 0
-3 -14 -40 0
4 14 46 0
-4 -14 -46 0
5 14 52 0
-5 -14 -52 0
6 14 58 0
-6 -14 -58 0
7 14 64 0
-7 -14 -64 0
8 14 70 0
-8 -14 -70 0
9 14 76 0
-9 -14 -76 0
10 14 82 0
-10 -14 -82 0
11 14 88 0
-11 -14 -88 0
12 14 94 0
-12 -14 -94 0
13 14 100 0
-13 -14 -100 0
14 106 0
-14 -106 0
14 15 112 0
-14 -15 -112 0
14 16 118 0
-14 -16 -118 0
14 17 124 0
-14 -17 -124 0
1 15 29 0
-1 -15 -29 0
2 15 35 0
-2 -15 -35 0
3 15 41 0
-3 -15 -41 0
4 15 47 0
-4 -15 -47 0
5 15 53 0
-5 -15 -53 0
6 15 59 0
-6 -15 -59 0
7 15 65 0
-7 -15 -65 0
8 15 71 0
-8 -15 -71 0
9 15 77 0
-9 -15 -77 0
10 15 83 0
-10 -15 -83 0
11 15 89 0
-11 -15 -89 0
12 15 95 0
-12 -15 -95 0
13 15 101 0
-13 -15 -101 0
14 15 107 0
-14 -15 -107 0
15 113 0
-15 -113 0
15 16 119 0
-15 -16 -119 0
15 17 125 0
-15 -17 -125 0
1 16 30 0
-1 -16 -30 0
2 16 36 0
-2 -16 -36 0
3 16 42 0
-3 -16 -42 0
4 16 48 0
-4 -16 -48 0
5 16 54 0
-5 -16 -54 0
6 16 60 0
-6 -16 -60 0
7 16 66 0
-7 -16 -66 0
8 16 72 0
-8 -16 -72 0
9 16 78 0
-9 -16 -78 0
10 16 84 0
-10 -16 -84 0
11 16 90 0
-11 -16 -90 0
12 16 96 0
-12 -16 -96 0
13 16 102 0
-13 -16 -102 0
14 16 108 0
-14 -16 -108 0
15 16 114 0
-15 -16 -114 0
16 120 0
-16 -120 0
16 17 126 0
-16 -17 -126 0
1 17 31 0
-1 -17 -31 0
2 17 37 0
-2 -17 -37 0
3 17 43 0
-3 -17 -43 0
4 17 49 0
-4 -17 -49 0
5 17 55 0
-5 -17 -55 0
6 17 61 0
-6 -17 -61 0
7 17 67 0
-7 -17 -67 0
8 17 73 0
-8 -17 -73 0
9 17 79 0
-9 -17 -79 0
10 17 85 0
-10 -17 -85 0
11 17 91 0
-11 -17 -91 0
12 17 97 0
-12 -17 -97 0
13 17 103 0
-13 -17 -103 0
14 17 109 0
-14 -17 -109 0
15 17 115 0
-15 -17 -115 0
16 17 121 0
-16 -17 -121 0
17 127 0
-17 -127 0
1 18 32 0
-1 -18 -32 0
2 18 38 0
-2 -18 -38 0
3 18 44 0
-3 -18 -44 0
4 18 50 0
-4 -18 -50 0
5 18 56 0
-5 -18 -56 0
6 18 62 0
-6 -18 -62 0
7 18 68 0
-7 -18 -68 0
8 18 74 0
-8 -18 -74 0
9 18 80 0
-9 -18 -80 0
10 18 86 0
-10 -18 -86 0
11 18 92 0
-11 -18 -92 0
12 18 98 0
-12 -18 -98 0
13 18 104 0
-13 -18 -104 0
14 18 110 0
-14 -18 -110 0
15 18 116 0
-15 -18 -116 0
16 18 122 0
-16 -18 -122 0
1 19 33 0
-1 -19 -33 0
2 19 39 0
-2 -19 -39 0
3 19 45 0
-3 -19 -45 0
4 19 51 0
-4 -19 -51 0
5 19 57 0
-5 -19 -57 0
6 19 63 0
-6 -19 -63 0
7 19 69 0
-7 -19 -69 0
8 19 75 0
-8 -19 -75 0
9 19 81 0
-9 -19 -81 0
10 19 87 0
-10 -19 -87 0
11 19 93 0
-11 -19 -93 0
12 19 99 0
-12 -19 -99 0
13 19 105 0
-13 -19 -105 0
14 19 111 0
-14 -19 -111 0
15 19 117 0
-15 -19 -117 0
16 19 123 0
-16 -19 -123 0
1 20 34 0
-1 -20 -34 0
2 20 40 0
-2 -20 -40 0
3 20 46 0
-3 -20 -46 0
4 20 52 0
-4 -20 -52 0
5 20 58 0
-5 -20 -58 0
6 20 64 0
-6 -20 -64 0
7 20 70 0
-7 -20 -70 0
8 20 76 0
-8 -20 -76 0
9 20 82 0
-9 -20 -82 0
10 20 88 0
-10 -20 -88 0
11 20 94 0
-11 -20 -94 0
12 20 100 0
-12 -20 -100 0
13 20 106 0
-13 -20 -106 0
14 20 112 0
-14 -20 -112 0
15 20 118 0
-15 -20 -118 0
16 20 124 0
-16 -20 -124 0
1 21 35 0
-1 -21 -35 0
2 21 41 0
-2 -21 -41 0
3 21 47 0
-3 -21 -47 0
4 21 53 0
-4 -21 -53 0
5 21 59 0
-5 -21 -59 0
6 21 65 0
-6 -21 -65 0
7 21 71 0
-7 -21 -71 0
8 21 77 0
-8 -21 -77 0
9 21 83 0
-9 -21 -83 0
10 21 89 0
-10 -21 -89 0
11 21 95 0
-11 -21 -95 0
12 21 101 0
-12 -21 -101 0
13 21 107 0
-13 -21 -107 0
14 21 113 0
-14 -21 -113 0
15 21 119 0
-15 -21 -119 0
16 21 125 0
-16 -21 -125 0
1 22 36 0
-1 -22 -36 0
2 22 42 0
-2 -22 -42 0
3 22 48 0
-3 -22 -48 0
4 22 54 0
-4 -22 -54 0
5 22 60 0
-5 -22 -60 0
6 22 66 0
-6 -22 -66 0
7 22 72 0
-7 -22 -72 0
8 22 78 0
-8 -22 -78 0
9 22 84 0
-9 -22 -84 0
10 22 90 0
-10 -22 -90 0
11 22 96 0
-11 -22 -96 0
12 22 102 0
-12 -22 -102 0
13 22 108 0
-13 -22 -108 0
14 22 114 0
-14 -22 -114 0
15 22 120 0
-15 -22 -120 0
16 22 126 0
-16 -22 -126 0
1 23 37 0
-1 -23 -37 0
2 23 43 0
-2 -23 -43 0
3 23 49 0
-3 -23 -49 0
4 23 55 0
-4 -23 -55 0
5 23 61 0
-5 -23 -61 0
6 23 67 0
-6 -23 -67 0
7 23 73 0
-7 -23 -73 0
8 23 79 0
-8 -23 -79 0
9 23 85 0
-9 -23 -85 0
10 23 91 0
-10 -23 -91 0
11 23 97 0
-11 -23 -97 0
12 23 103 0
-12 -23 -103 0
13 23 109 0
-13 -23 -109 0
14 23 115 0
-14 -23 -115 0
15 23 121 0
-15 -23 -121 0
16 23 127 0
-16 -23 -127 0
1 24 38 0
-1 -24 -38 0
2 24 44 0
-2 -24 -44 0
3 24 50 0
-3 -24 -50 0
4 24 56 0
-4 -24 -56 0
5 24 62 0
-5 -24 -62 0
6 24 68 0
-6 -24 -68 0
7 24 74 0
-7 -24 -74 0
8 24 80 0
-8 -24 -80 0
9 24 86 0
-9 -24 -86 0
10 24 92 0
-10 -24 -92 0
11 24 98 0
-11 -24 -98 0
12 24 104 0
-12 -24 -104 0
13 24 110 0
-13 -24 -110 0
14 24 116 0
-14 -24 -116 0
15 24 122 0
-15 -24 -122 0
1 25 39 0
-1 -25 -39 0
2 25 45 0
-2 -25 -45 0
3 25 51 0
-3 -25 -51 0
4 25 57 0
-4 -25 -57 0
5 25 63 0
-5 -25 -63 0
6 25 69 0
-6 -25 -69 0
7 25 75 0
-7 -25 -75 0
8 25 81 0
-8 -25 -81 0
9 25 87 0
-9 -25 -87 0
10 25 93 0
-10 -25 -93 0
11 25 99 0
-11 -25 -99 0
12 25 105 0
-12 -25 -105 0
13 25 111 0
-13 -25 -111 0
14 25 117 0
-14 -25 -117 0
15 25 123 0
-15 -25 -123 0
1 26 40 0
-1 -26 -40 0
2 26 46 0
-2 -26 -46 0
3 26 52 0
-3 -26 -52 0
4 26 58 0
-4 -26 -58 0
5 26 64 0
-5 -26 -64 0
6 26 70 0
-6 -26 -70 0
7 26 76 0
-7 -26 -76 0
8 26 82 0
-8 -26 -82 0
9 26 88 0
-9 -26 -88 0
10 26 94 0
-10 -26 -94 0
11 26 100 0
-11 -26 -100 0
12 26 106 0
-12 -26 -106 0
13 26 112 0
-13 -26 -112 0
14 26 118 0
-14 -26 -118 0
15 26 124 0
-15 -26 -124 0
1 27 41 0
-1 -27 -41 0
2 27 47 0
-2 -27 -47 0
3 27 53 0
-3 -27 -53 0
4 27 59 0
-4 -27 -59 0
5 27 65 0
-5 -27 -65 0
6 27 71 0
-6 -27 -71 0
7 27 77 0
-7 -27 -77 0
8 27 83 0
-8 -27 -83 0
9 27 89 0
-9 -27 -89 0
10 27 95 0
-10 -27 -95 0
11 27 101 0
-11 -27 -101 0
12 27 107 0
-12 -27 -107 0
13 27 113 0
-13 -27 -113 0
14 27 119 0
-14 -27 -119 0
15 27 125 0
-15 -27 -125 0
1 28 42 0
-1 -28 -42 0
2 28 48 0
-2 -28 -48 0
3 28 54 0
-3 -28 -54 0
4 28 60 0
-4 -28 -60 0
5 28 66 0
-5 -28 -66 0
6 28 72 0
-6 -28 -72 0
7 28 78 0
-7 -28 -78 0
8 28 84 0
-8 -28 -84 0
9 28 90 0
-9 -28 -90 0
10 28 96 0
-10 -28 -96 0
11 28 102 0
-11 -28 -102 0
12 28 108 0
-12 -28 -108 0
13 28 114 0
-13 -28 -114 0
14 28 120 0
-14 -28 -120 0
15 28 126 0
-15 -28 -126 0
1 29 43 0
-1 -29 -43 0
2 29 49 0
-2 -29 -49 0
3 29 55 0
-3 -29 -55 0
4 29 61 0
-4 -29 -61 0
5 29 67 0
-5 -29 -67 0
6 29 73 0
-6 -29 -73 0
7 29 79 0
-7 -29 -79 0
8 29 85 0
-8 -29 -85 0
9 29 91 0
-9 -29 -91 0
10 29 97 0
-10 -29 -97 0
11 29 103 0
-11 -29 -103 0
12 29 109 0
-12 -29 -109 0
13 29 115 0
-13 -29 -115 0
14 29 121 0
-14 -29 -121 0
15 29 127 0
-15 -29 -127 0
1 30 44 0
-1 -30 -44 0
2 30 50 0
-2 -30 -50 0
3 30 56 0
-3 -30 -56 0
4 30 62 0
-4 -30 -62 0
5 30 68 0
-5 -30 -68 0
6 30 74 0
-6 -30 -74 0
7 30 80 0
-7 -30 -80 0
8 30 86 0
-8 -30 -86 0
9 30 92 0
-9 -30 -92 0
10 30 98 0
-10 -30 -98 0
11 30 104 0
-11 -30 -104 0
12 30 110 0
-12 -30 -110 0
13 30 116 0
-13 -30 -116 0
14 30 122 0
-14 -30 -122 0
1 31 45 0
-1 -31 -45 0
2 31 51 0
-2 -31 -51 0
3 31 57 0
-3 -31 -57 0
4 31 63 0
-4 -31 -63 0
5 31 69 0
-5 -31 -69 0
6 31 75 0
-6 -31 -75 0
7 31 81 0
-7 -31 -81 0
8 31 87 0
-8 -31 -87 0
9 31 93 0
-9 -31 -93 0
10 31 99 0
-10 -31 -99 0
11 31 105 0
-11 -31 -105 0
12 31 111 0
-12 -31 -111 0
13 31 117 0
-13 -31 -117 0
14 31 123 0
-14 -31 -123 0
1 32 46 0
-1 -32 -46 0
2 32 52 0
-2 -32 -52 0
3 32 58 0
-3 -32 -58 0
4 32 64 0
-4 -32 -64 0
5 32 70 0
-5 -32 -70 0
6 32 76 0
-6 -32 -76 0
7 32 82 0
-7 -32 -82 0
8 32 88 0
-8 -32 -88 0
9 32 94 0
-9 -32 -94 0
10 32 100 0
-10 -32 -100 0
11 32 106 0
-11 -32 -106 0
12 32 112 0
-12 -32 -112 0
13 32 118 0
-13 -32 -118 0
14 32 124 0
-14 -32 -124 0
1 33 47 0
-1 -33 -47 0
2 33 53 0
-2 -33 -53 0
3 33 59 0
-3 -33 -59 0
4 33 65 0
-4 -33 -65 0
5 33 71 0
-5 -33 -71 0
6 33 77 0
-6 -33 -77 0
7 33 83 0
-7 -33 -83 0
8 33 89 0
-8 -33 -89 0
9 33 95 0
-9 -33 -95 0
10 33 101 0
-10 -33 -101 0
11 33 107 0
-11 -33 -107 0
12 33 113 0
-12 -33 -113 0
13 33 119 0
-13 -33 -119 0
14 33 125 0
-14 -33 -125 0
1 34 48 0
-1 -34 -48 0
2 34 54 0
-2 -34 -54 0
3 34 60 0
-3 -34 -60 0
4 34 66 0
-4 -34 -66 0
5 34 72 0
-5 -34 -72 0
6 34 78 0
-6 -34 -78 0
7 34 84 0
-7 -34 -84 0
8 34 90 0
-8 -34 -90 0
9 34 96 0
-9 -34 -96 0
10 34 102 0
-10 -34 -102 0
11 34 108 0
-11 -34 -108 0
12 34 114 0
-12 -34 -114 0
13 34 120 0
-13 -34 -120 0
14 34 126 0
-14 -34 -126 0
1 35 49 0
-1 -35 -49 0
2 35 55 0
-2 -35 -55 0
3 35 61 0
-3 -35 -61 0
4 35 67 0
-4 -35 -67 0
5 35 73 0
-5 -35 -73 0
6 35 79 0
-6 -35 -79 0
7 35 85 0
-7 -35 -85 0
8 35 91 0
-8 -35 -91 0
9 35 97 0
-9 -35 -97 0
10 35 103 0
-10 -35 -103 0
11 35 109 0
-11 -35 -109 0
12 35 115 0
-12 -35 -115 0
13 35 121 0
-13 -35 -121 0
14 35 127 0
-14 -35 -127 0
1 36 50 0
-1 -36 -50 0
2 36 56 0
-2 -36 -56 0
3 36 62 0
-3 -36 -62 0
4 36 68 0
-4 -36 -68 0
5 36 74 0
-5 -36 -74 0
6 36 80 0
-6 -36 -80 0
7 36 86 0
-7 -36 -86 0
8 36 92 0
-8 -36 -92 0
9 36 98 0
-9 -36 -98 0
10 36 104 0
-10 -36 -104 0
11 36 110 0
-11 -36 -110 0
12 36 116 0
-12 -36 -116 0
13 36 122 0
-13 -36 -122 0
1 37 51 0
-1 -37 -51 0
2 37 57 0
-2 -37 -57 0
3 37 63 0
-3 -37 -63 0
4 37 69 0
-4 -37 -69 0
5 37 75 0
-5 -37 -75 0
6 37 81 0
-6 -37 -81 0
7 37 87 0
-7 -37 -87 0
8 37 93 0
-8 -37 -93 0
9 37 99 0
-9 -37 -99 0
10 37 105 0
-10 -37 -105 0
11 37 111 0
-11 -37 -111 0
12 37 117 0
-12 -37 -117 0
13 37 123 0
-13 -37 -123 0
1 38 52 0
-1 -38 -52 0
2 38 58 0
-2 -38 -58 0
3 38 64 0
-3 -38 -64 0
4 38 70 0
-4 -38 -70 0
5 38 76 0
-5 -38 -76 0
6 38 82 0
-6 -38 -82 0
7 38 88 0
-7 -38 -88 0
8 38 94 0
-8 -38 -94 0
9 38 100 0
-9 -38 -100 0
10 38 106 0
-10 -38 -106 0
11 38 112 0
-11 -38 -112 0
12 38 118 0
-12 -38 -118 0
13 38 124 0
-13 -38 -124 0
1 39 53 0
-1 -39 -53 0
2 39 59 0
-2 -39 -59 0
3 39 65 0
-3 -39 -65 0
4 39 71 0
-4 -39 -71 0
5 39 77 0
-5 -39 -77 0
6 39 83 0
-6 -39 -83 0
7 39 89 0
-7 -39 -89 0
8 39 95 0
-8 -39 -95 0
9 39 101 0
-9 -39 -101 0
10 39 107 0
-10 -39 -107 0
11 39 113 0
-11 -39 -113 0
12 39 119 0
-12 -39 -119 0
13 39 125 0
-13 -39 -125 0
1 40 54 0
-1 -40 -54 0
2 40 60 0
-2 -40 -60 0
3 40 66 0
-3 -40 -66 0
4 40 72 0
-4 -40 -72 0
5 40 78 0
-5 -40 -78 0
6 40 84 0
-6 -40 -84 0
7 40 90 0
-7 -40 -90 0
8 40 96 0
-8 -40 -96 0
9 40 102 0
-9 -40 -102 0
10 40 108 0
-10 -40 -108 0
11 40 114 0
-11 -40 -114 0
12 40 120 0
-12 -40 -120 0
13 40 126 0
-13 -40 -126 0
1 41 55 0
-1 -41 -55 0
2 41 61 0
-2 -41 -61 0
3 41 67 0
-3 -41 -67 0
4 41 73 0
-4 -41 -73 0
5 41 79 0
-5 -41 -79 0
6 41 85 0
-6 -41 -85 0
7 41 91 0
-7 -41 -91 0
8 41 97 0
-8 -41 -97 0
9 41 103 0
-9 -41 -103 0
10 41 109 0
-10 -41 -109 0
11 41 115 0
-11 -41 -115 0
12 41 121 0
-12 -41 -121 0
13 41 127 0
-13 -41 -127 0
1 42 56 0
-1 -42 -56 0
2 42 62 0
-2 -42 -62 0
3 42 68 0
-3 -42 -68 0
4 42 74 0
-4 -42 -74 0
5 42 80 0
-5 -42 -80 0
6 42 86 0
-6 -42 -86 0
7 42 92 0
-7 -42 -92 0
8 42 98 0
-8 -42 -98 0
9 42 104 0
-9 -42 -104 0
10 42 110 0
-10 -42 -110 0
11 42 116 0
-11 -42 -116 0
12 42 122 0
-12 -42 -122 0
1 43 57 0
-1 -43 -57 0
2 43 63 0
-2 -43 -63 0
3 43 69 0
-3 -43 -69 0
4 43 75 0
-4 -43 -75 0
5 43 81 0
-5 -43 -81 0
6 43 87 0
-6 -43 -87 0
7 43 93 0
-7 -43 -93 0
8 43 99 0
-8 -43 -99 0
9 43 105 0
-9 -43 -105 0
10 43 111 0
-10 -43 -111 0
11 43 117 0
-11 -43 -117 0
12 43 123 0
-12 -43 -123 0
1 44 58 0
-1 -44 -58 0
2 44 64 0
-2 -44 -64 0
3 44 70 0
-3 -44 -70 0
4 44 76 0
-4 -44 -76 0
5 44 82 0
-5 -44 -82 0
6 44 88 0
-6 -44 -88 0
7 44 94 0
-7 -44 -94 0
8 44 100 0
-8 -44 -100 0
9 44 106 0
-9 -44 -106 0
10 44 112 0
-10 -44 -112 0
11 44 118 0
-11 -44 -118 0
12 44 124 0
-12 -44 -124 0
1 45 59 0
-1 -45 -59 0
2 45 65 0
-2 -45 -65 0
3 45 71 0
-3 -45 -71 0
4 45 77 0
-4 -45 -77 0
5 45 83 0
-5 -45 -83 0
6 45 89 0
-6 -45 -89 0
7 45 95 0
-7 -45 -95 0
8 45 101 0
-8 -45 -101 0
9 45 107 0
-9 -45 -107 0
10 45 113 0
-10 -45 -113 0
11 45 119 0
-11 -45 -119 0
12 45 125 0
-12 -45 -125 0
1 46 60 0
-1 -46 -60 0
2 46 66 0
-2 -46 -66 0
3 46 72 0
-3 -46 -72 0
4 46 78 0
-4 -46 -78 0
5 46 84 0
-5 -46 -84 0
6 46 90 0
-6 -46 -90 0
7 46 96 0
-7 -46 -96 0
8 46 102 0
-8 -46 -102 0
9 46 108 0
-9 -46 -108 0
10 46 114 0
-10 -46 -114 0
11 46 120 0
-11 -46 -120 0
12 46 126 0
-12 -46 -126 0
1 47 61 0
-1 -47 -61 0
2 47 67 0
-2 -47 -67 0
3 47 73 0
-3 -47 -73 0
4 47 79 0
-4 -47 -79 0
5 47 85 0
-5 -47 -85 0
6 47 91 0
-6 -47 -91 0
7 47 97 0
-7 -47 -97 0
8 47 103 0
-8 -47 -103 0
9 47 109 0
-9 -47 -109 0
10 47 115 0
-10 -47 -115 0
11 47 121 0
-11 -47 -121 0
12 47 127 0
-12 -47 -127 0
1 48 62 0
-1 -48 -62 0
2 48 68 0
-2 -48 -68 0
3 48 74 0
-3 -48 -74 0
4 48 80 0
-4 -48 -80 0
5 48 86 0
-5 -48 -86 0
6 48 92 0
-6 -48 -92 0
7 48 98 0
-7 -48 -98 0
8 48 104 0
-8 -48 -104 0
9 48 110 0
-9 -48 -110 0
10 48 116 0
-10 -48 -116 0
11 48 122 0
-11 -48 -122 0
1 49 63 0
-1 -49 -63 0
2 49 69 0
-2 -49 -69 0
3 49 75 0
-3 -49 -75 0
4 49 81 0
-4 -49 -81 0
5 49 87 0
-5 -49 -87 0
6 49 93 0
-6 -49 -93 0
7 49 99 0
-7 -49 -99 0
8 49 105 0
-8 -49 -105 0
9 49 111 0
-9 -49 -111 0
10 49 117 0
-10 -49 -117 0
11 49 123 0
-11 -49 -123 0
1 50 64 0
-1 -50 -64 0
2 50 70 0
-2 -50 -70 0
3 50 76 0
-3 -50 -76 0
4 50 82 0
-4 -50 -82 0
5 50 88 0
-5 -50 -88 0
6 50 94 0
-6 -50 -94 0
7 50 100 0
-7 -50 -100 0
8 50 106 0
-8 -50 -106 0
9 50 112 0
-9 -50 -112 0
10 50 118 0
-10 -50 -118 0
11 50 124 0
-11 -50 -124 0
1 51 65 0
-1 -51 -65 0
2 51 71 0
-2 -51 -71 0
3 51 77 0
-3 -51 -77 0
4 51 83 0
-4 -51 -83 0
5 51 89 0
-5 -51 -89 0
6 51 95 0
-6 -51 -95 0
7 51 101 0
-7 -51 -101 0
8 51 107 0
-8 -51 -107 0
9 51 113 0
-9 -51 -113 0
10 51 119 0
-10 -51 -119 0
11 51 125 0
-11 -51 -125 0
1 52 66 0
-1 -52 -66 0
2 52 72 0
-2 -52 -72 0
3 52 78 0
-3 -52 -78 0
4 52 84 0
-4 -52 -84 0
5 52 90 0
-5 -52 -90 0
6 52 96 0
-6 -52 -96 0
7 52 102 0
-7 -52 -102 0
8 52 108 0
-8 -52 -108 0
9 52 114 0
-9 -52 -114 0
10 52 120 0
-10 -52 -120 0
11 52 126 0
-11 -52 -126 0
1 53 67 0
-1 -53 -67 0
2 53 73 0
-2 -53 -73 0
3 53 79 0
-3 -53 -79 0
4 53 85 0
-4 -53 -85 0
5 53 91 0
-5 -53 -91 0
6 53 97 0
-6 -53 -97 0
7 53 103 0
-7 -53 -103 0
8 53 109 0
-8 -53 -109 0
9 53 115 0
-9 -53 -115 0
10 53 121 0
-10 -53 -121 0
11 53 127 0
-11 -53 -127 0
1 54 68 0
-1 -54 -68 0
2 54 74 0
-2 -54 -74 0
3 54 80 0
-3 -54 -80 0
4 54 86 0
-4 -54 -86 0
5 54 92 0
-5 -54 -92 0
6 54 98 0
-6 -54 -98 0
7 54 104 0
-7 -54 -104 0
8 54 110 0
-8 -54 -110 0
9 54 116 0
-9 -54 -116 0
10 54 122 0
-10 -54 -122 0
1 55 69 0
-1 -55 -69 0
2 55 75 0
-2 -55 -75 0
3 55 81 0
-3 -55 -81 0
4 55 87 0
-4 -55 -87 0
5 55 93 0
-5 -55 -93 0
6 55 99 0
-6 -55 -99 0
7 55 105 0
-7 -55 -105 0
8 55 111 0
-8 -55 -111 0
9 55 117 0
-9 -55 -117 0
10 55 123 0
-10 -55 -123 0
1 56 70 0
-1 -56 -70 0
2 56 76 0
-2 -56 -76 0
3 56 82 0
-3 -56 -82 0
4 56 88 0
-4 -56 -88 0
5 56 94 0
-5 -56 -94 0
6 56 100 0
-6 -56 -100 0
7 56 106 0
-7 -56 -106 0
8 56 112 0
-8 -56 -112 0
9 56 118 0
-9 -56 -118 0
10 56 124 0
-10 -56 -124 0
1 57 71 0
-1 -57 -71 0
2 57 77 0
-2 -57 -77 0
3 57 83 0
-3 -57 -83 0
4 57 89 0
-4 -57 -89 0
5 57 95 0
-5 -57 -95 0
6 57 101 0
-6 -57 -101 0
7 57 107 0
-7 -57 -107 0
8 57 113 0
-8 -57 -113 0
9 57 119 0
-9 -57 -119 0
10 57 125 0
-10 -57 -125 0
1 58 72 0
-1 -58 -72 0
2 58 78 0
-2 -58 -78 0
3 58 84 0
-3 -58 -84 0
4 58 90 0
-4 -58 -90 0
5 58 96 0
-5 -58 -96 0
6 58 102 0
-6 -58 -102 0
7 58 108 0
-7 -58 -108 0
8 58 114 0
-8 -58 -114 0
9 58 120 0
-9 -58 -120 0
10 58 126 0
-10 -58 -126 0
1 59 73 0
-1 -59 -73 0
2 59 79 0
-2 -59 -79 0
3 59 85 0
-3 -59 -85 0
4 59 91 0
-4 -59 -91 0
5 59 97 0
-5 -59 -97 0
6 59 103 0
-6 -59 -103 0
7 59 109 0
-7 -59 -109 0
8 59 115 0
-8 -59 -115 0
9 59 121 0
-9 -59 -121 0
10 59 127 0
-10 -59 -127 0
1 60 74 0
-1 -60 -74 0
2 60 80 0
-2 -60 -80 0
3 60 86 0
-3 -60 -86 0
4 60 92 0
-4 -60 -92 0
5 60 98 0
-5 -60 -98 0
6 60 104 0
-6 -60 -104 0
7 60 110 0
-7 -60 -110 0
8 60 116 0
-8 -60 -116 0
9 60 122 0
-9 -60 -122 0
1 61 75 0
-1 -61 -75 0
2 61 81 0
-2 -61 -81 0
3 61 87 0
-3 -61 -87 0
4 61 93 0
-4 -61 -93 0
5 61 99 0
-5 -61 -99 0
6 61 105 0
-6 -61 -105 0
7 61 111 0
-7 -61 -111 0
8 61 117 0
-8 -61 -117 0
9 61 123 0
-9 -61 -123 0
1 62 76 0
-1 -62 -76 0
2 62 82 0
-2 -62 -82 0
3 62 88 0
-3 -62 -88 0
4 62 94 0
-4 -62 -94 0
5 62 100 0
-5 -62 -100 0
6 62 106 0
-6 -62 -106 0
7 62 112 0
-7 -62 -112 0
8 62 118 0
-8 -62 -118 0
9 62 124 0
-9 -62 -124 0
1 63 77 0
-1 -63 -77 0
2 63 83 0
-2 -63 -83 0
3 63 89 0
-3 -63 -89 0
4 63 95 0
-4 -63 -95 0
5 63 101 0
-5 -63 -101 0
6 63 107 0
-6 -63 -107 0
7 63 113 0
-7 -63 -113 0
8 63 119 0
-8 -63 -119 0
9 63 125 0
-9 -63 -125 0
1 64 78 0
-1 -64 -78 0
2 64 84 0
-2 -64 -84 0
3 64 90 0
-3 -64 -90 0
4 64 96 0
-4 -64 -96 0
5 64 102 0
-5 -64 -102 0
6 64 108 0
-6 -64 -108 0
7 64 114 0
-7 -64 -114 0
8 64 120 0
-8 -64 -120 0
9 64 126 0
-9 -64 -126 0
1 65 79 0
-1 -65 -79 0
2 65 85 0
-2 -65 -85 0
3 65 91 0
-3 -65 -91 0
4 65 97 0
-4 -65 -97 0
5 65 103 0
-5 -65 -103 0
6 65 109 0
-6 -65 -109 0
7 65 115 0
-7 -65 -115 0
8 65 121 0
-8 -65 -121 0
9 65 127 0
-9 -65 -127 0
1 66 80 0
-1 -66 -80 0
2 66 86 0
-2 -66 -86 0
3 66 92 0
-3 -66 -92 0
4 66 98 0
-4 -66 -98 0
5 66 104 0
-5 -66 -104 0
6 66 110 0
-6 -66 -110 0
7 66 116 0
-7 -66 -116 0
8 66 122 0
-8 -66 -122 0
1 67 81 0
-1 -67 -81 0
2 67 87 0
-2 -67 -87 0
3 67 93 0
-3 -67 -93 0
4 67 99 0
-4 -67 -99 0
5 67 105 0
-5 -67 -105 0
6 67 111 0
-6 -67 -111 0
7 67 117 0
-7 -67 -117 0
8 67 123 0
-8 -67 -123 0
1 68 82 0
-1 -68 -82 0
2 68 88 0
-2 -68 -88 0
3 68 94 0
-3 -68 -94 0
4 68 100 0
-4 -68 -100 0
5 68 106 0
-5 -68 -106 0
6 68 112 0
-6 -68 -112 0
7 68 118 0
-7 -68 -118 0
8 68 124 0
-8 -68 -124 0
1 69 83 0
-1 -69 -83 0
2 69 89 0
-2 -69 -89 0
3 69 95 0
-3 -69 -95 0
4 69 101 0
-4 -69 -101 0
5 69 107 0
-5 -69 -107 0
6 69 113 0
-6 -69 -113 0
7 69 119 0
-7 -69 -119 0
8 69 125 0
-8 -69 -125 0
1 70 84 0
-1 -70 -84 0
2 70 90 0
-2 -70 -90 0
3 70 96 0
-3 -70 -96 0
4 70 102 0
-4 -70 -102 0
5 70 108 0
-5 -70 -108 0
6 70 114 0
-6 -70 -114 0
7 70 120 0
-7 -70 -120 0
8 70 126 0
-8 -70 -126 0
1 71 85 0
-1 -71 -85 0
2 71 91 0
-2 -71 -91 0
3 71 97 0
-3 -71 -97 0
4 71 103 0
-4 -71 -103 0
5 71 109 0
-5 -71 -109 0
6 71 115 0
-6 -71 -115 0
7 71 121 0
-7 -71 -121 0
8 71 127 0
-8 -71 -127 0
1 72 86 0
-1 -72 -86 0
2 72 92 0
-2 -72 -92 0
3 72 98 0
-3 -72 -98 0
4 72 104 0
-4 -72 -104 0
5 72 110 0
-5 -72 -110 0
6 72 116 0
-6 -72 -116 0
7 72 122 0
-7 -72 -122 0
1 73 87 0
-1 -73 -87 0
2 73 93 0
-2 -73 -93 0
3 73 99 0
-3 -73 -99 0
4 73 105 0
-4 -73 -105 0
5 73 111 0
-5 -73 -111 0
6 73 117 0
-6 -73 -117 0
7 73 123 0
-7 -73 -123 0
1 74 88 0
-1 -74 -88 0
2 74 94 0
-2 -74 -94 0
3 74 100 0
-3 -74 -100 0
4 74 106 0
-4 -74 -106 0
5 74 112 0
-5 -74 -112 0
6 74 118 0
-6 -74 -118 0
7 74 124 0
-7 -74 -124 0
1 75 89 0
-1 -75 -89 0
2 75 95 0
-2 -75 -95 0
3 75 101 0
-3 -75 -101 0
4 75 107 0
-4 -75 -107 0
5 75 113 0
-5 -75 -113 0
6 75 119 0
-6 -75 -119 0
7 75 125 0
-7 -75 -125 0
1 76 90 0
-1 -76 -90 0
2 76 96 0
-2 -76 -96 0
3 76 102 0
-3 -76 -102 0
4 76 108 0
-4 -76 -108 0
5 76 114 0
-5 -76 -114 0
6 76 120 0
-6 -76 -120 0
7 76 126 0
-7 -76 -126 0
1 77 91 0
-1 -77 -91 0
2 77 97 0
-2 -77 -97 0
3 77 103 0
-3 -77 -103 0
4 77 109 0
-4 -77 -109 0
5 77 115 0
-5 -77 -115 0
6 77 121 0
-6 -77 -121 0
7 77 127 0
-7 -77 -127 0
1 78 92 0
-1 -78 -92 0
2 78 98 0
-2 -78 -98 0
3 78 104 0
-3 -78 -104 0
4 78 110 0
-4 -78 -110 0
5 78 116 0
-5 -78 -116 0
6 78 122 0
-6 -78 -122 0
1 79 93 0
-1 -79 -93 0
2 79 99 0
-2 -79 -99 0
3 79 105 0
-3 -79 -105 0
4 79 111 0
-4 -79 -111 0
5 79 117 0
-5 -79 -117 0
6 79 123 0
-6 -79 -123 0
1 80 94 0
-1 -80 -94 0
2 80 100 0
-2 -80 -100 0
3 80 106 0
-3 -80 -106 0
4 80 112 0
-4 -80 -112 0
5 80 118 0
-5 -80 -118 0
6 80 124 0
-6 -80 -124 0
1 81 95 0
-1 -81 -95 0
2 81 101 0
-2 -81 -101 0
3 81 107 0
-3 -81 -107 0
4 81 113 0
-4 -81 -113 0
5 81 119 0
-5 -81 -119 0
6 81 125 0
-6 -81 -125 0
1 82 96 0
-1 -82 -96 0
2 82 102 0
-2 -82 -102 0
3 82 108 0
-3 -82 -108 0
4 82 114 0
-4 -82 -114 0
5 82 120 0
-5 -82 -120 0
6 82 126 0
-6 -82 -126 0
1 83 97 0
-1 -83 -97 0
2 83 103 0
-2 -83 -103 0
3 83 109 0
-3 -83 -109 0
4 83 115 0
-4 -83 -115 0
5 83 121 0
-5 -83 -121 0
6 83 127 0
-6 -83 -127 0
1 84 98 0
-1 -84 -98 0
2 84 104 0
-2 -84 -104 0
3 84 110 0
-3 -84 -110 0
4 84 116 0
-4 -84 -116 0
5 84 122 0
-5 -84 -122 0
1 85 99 0
-1 -85 -99 0
2 85 105 0
-2 -85 -105 0
3 85 111 0
-3 -85 -111 0
4 85 117 0
-4 -85 -117 0
5 85 123 0
-5 -85 -123 0
1 86 100 0
-1 -86 -100 0
2 86 106 0
-2 -86 -106 0
3 86 112 0
-3 -86 -112 0
4 86 118 0
-4 -86 -118 0
5 86 124 0
-5 -86 -124 0
1 87 101 0
-1 -87 -101 0
2 87 107 0
-2 -87 -107 0
3 87 113 0
-3 -87 -113 0
4 87 119 0
-4 -87 -119 0
5 87 125 0
-5 -87 -125 0
1 88 102 0
-1 -88 -102 0
2 88 108 0
-2 -88 -108 0
3 88 114 0
-3 -88 -114 0
4 88 120 0
-4 -88 -120 0
5 88 126 0
-5 -88 -126 0
1 89 103 0
-1 -89 -103 0
2 89 109 0
-2 -89 -109 0
3 89 115 0
-3 -89 -115 0
4 89 121 0
-4 -89 -121 0
5 89 127 0
-5 -89 -127 0
1 90 104 0
-1 -90 -104 0
2 90 110 0
-2 -90 -110 0
3 90 116 0
-3 -90 -116 0
4 90 122 0
-4 -90 -122 0
1 91 105 0
-1 -91 -105 0
2 91 111 0
-2 -91 -111 0
3 91 117 0
-3 -91 -117 0
4 91 123 0
-4 -91 -123 0
1 92 106 0
-1 -92 -106 0
2 92 112 0
-2 -92 -112 0
3 92 118 0
-3 -92 -118 0
4 92 124 0
-4 -92 -124 0
1 93 107 0
-1 -93 -107 0
2 93 113 0
-2 -93 -113 0
3 93 119 0
-3 -93 -119 0
4 93 125 0
-4 -93 -125 0
1 94 108 0
-1 -94 -108 0
2 94 114 0
-2 -94 -114 0
3 94 120 0
-3 -94 -120 0
4 94 126 0
-4 -94 -126 0
1 95 109 0
-1 -95 -109 0
2 95 115 0
-2 -95 -115 0
3 95 121 0
-3 -95 -121 0
4 95 127 0
-4 -95 -127 0
1 96 110 0
-1 -96 -110 0
2 96 116 0
-2 -96 -116 0
3 96 122 0
-3 -96 -122 0
1 97 111 0
-1 -97 -111 0
2 97 117 0
-2 -97 -117 0
3 97 123 0
-3 -97 -123 0
1 98 112 0
-1 -98 -112 0
2 98 118 0
-2 -98 -118 0
3 98 124 0
-3 -98 -124 0
1 99 113 0
-1 -99 -113 0
2 99 119 0
-2 -99 -119 0
3 99 125 0
-3 -99 -125 0
1 100 114 0
-1 -100 -114 0
2 100 120 0
-2 -100 -120 0
3 100 126 0
-3 -100 -126 0
1 101 115 0
-1 -101 -115 0
2 101 121 0
-2 -101 -121 0
3 101 127 0
-3 -101 -127 0
1 102 116 0
-1 -102 -116 0
2 102 122 0
-2 -102 -122 0
1 103 117 0
-1 -103 -117 0
2 103 123 0
-2 -103 -123 0
1 104 118 0
-1 -104 -118 0
2 104 124 0
-2 -104 -124 0
1 105 119 0
-1 -105 -119 0
2 105 125 0
-2 -105 -125 0
1 106 120 0
-1 -106 -120 0
2 106 126 0
-2 -106 -126 0
1 107 121 0
-1 -107 -121 0
2 107 127 0
-2 -107 -127 0
1 108 122 0
-1 -108 -122 0
1 109 123 0
-1 -109 -123 0
1 110 124 0
-1 -110 -124 0
1 111 125 0
-1 -111 -125 0
1 112 126 0
-1 -112 -126 0
1 113 127 0
-1 -113 -127 0
