certificates/rado_a6_c-8_N127.drat
-113 -127 0
-127 0
17 0
113 0
-15 0
-3 0
1 0
29 0
101 0
41 0
-111 0
-31 0
-99 0
-43 0
-115 0
-87 0
-55 0
-27 0
13 0
85 0
57 0
8 0
10 0
12 0
5 0
73 0
125 0
69 0
6 0
89 0
61 0
81 0
4 0
53 0
-123 0
-103 0
-39 0
-11 0
-71 0
0
